3 
4  55 
5  10 25 38 45 53 
6  00 10 17 25 32 40 47 55 
7  02 10 17 25 32 40 47 55 
8  02 10 17 25 32 40 47 55 
9  02 10 17 25 32 44 51 59 
10  06 14 21 29 36 44 51 59 
11  06 14 21 29 36 44 51 59 
12  06 14 21 29 36 44 51 59 
13  06 14 21 29 36 44 51 59 
14  06 14 21 29 36 44 55 
15  03 10 17 25 33 40 48 55 
16  03 10 18 25 33 40 48 55 
17  03 10 18 25 33 40 49 55 
18  04 10 19 25 34 40 48 59 
19  06 14 21 29 36 46 56 
20  04 12 26 40 55 
21  10 25 40 55 
22  06 21 36 51 
23  11 
0 
